p tw 91 10921 2 
1 3 
1 4 
1 5 
1 6 
1 7 
1 8 
1 9 
1 10 
1 11 
1 12 
1 13 
1 14 
1 15 
1 16 
1 17 
1 18 
1 19 
1 20 
1 21 
1 22 
1 23 
1 24 
1 25 
2 3 
2 4 
2 5 
2 6 
2 7 
2 8 
2 9 
2 10 
2 11 
2 12 
2 13 
2 14 
2 26 
2 27 
2 28 
2 29 
2 30 
2 31 
2 32 
2 33 
2 34 
2 35 
2 36 
3 4 
3 5 
3 6 
3 7 
3 8 
3 9 
3 10 
3 11 
3 12 
3 13 
3 15 
3 26 
3 37 
3 38 
3 39 
3 40 
3 41 
3 42 
3 43 
3 44 
3 45 
3 46 
4 5 
4 6 
4 7 
4 8 
4 9 
4 10 
4 11 
4 12 
4 13 
4 16 
4 27 
4 37 
4 47 
4 48 
4 49 
4 50 
4 51 
4 52 
4 53 
4 54 
4 55 
5 6 
5 7 
5 8 
5 9 
5 10 
5 11 
5 12 
5 13 
5 17 
5 28 
5 38 
5 47 
5 56 
5 57 
5 58 
5 59 
5 60 
5 61 
5 62 
5 63 
6 7 
6 8 
6 9 
6 10 
6 11 
6 12 
6 13 
6 18 
6 29 
6 39 
6 48 
6 56 
6 64 
6 65 
6 66 
6 67 
6 68 
6 69 
6 70 
7 8 
7 9 
7 10 
7 11 
7 12 
7 13 
7 19 
7 30 
7 40 
7 49 
7 57 
7 64 
7 71 
7 72 
7 73 
7 74 
7 75 
7 76 
8 9 
8 10 
8 11 
8 12 
8 13 
8 20 
8 31 
8 41 
8 50 
8 58 
8 65 
8 71 
8 77 
8 78 
8 79 
8 80 
8 81 
9 10 
9 11 
9 12 
9 13 
9 21 
9 32 
9 42 
9 51 
9 59 
9 66 
9 72 
9 77 
9 82 
9 83 
9 84 
9 85 
10 11 
10 12 
10 13 
10 22 
10 33 
10 43 
10 52 
10 60 
10 67 
10 73 
10 78 
10 82 
10 86 
10 87 
10 88 
11 12 
11 13 
11 23 
11 34 
11 44 
11 53 
11 61 
11 68 
11 74 
11 79 
11 83 
11 86 
11 89 
11 90 
12 13 
12 24 
12 35 
12 45 
12 54 
12 62 
12 69 
12 75 
12 80 
12 84 
12 87 
12 89 
12 91 
13 25 
13 36 
13 46 
13 55 
13 63 
13 70 
13 76 
13 81 
13 85 
13 88 
13 90 
13 91 
14 15 
14 16 
14 17 
14 18 
14 19 
14 20 
14 21 
14 22 
14 23 
14 24 
14 25 
14 26 
14 27 
14 28 
14 29 
14 30 
14 31 
14 32 
14 33 
14 34 
14 35 
14 36 
15 16 
15 17 
15 18 
15 19 
15 20 
15 21 
15 22 
15 23 
15 24 
15 25 
15 26 
15 37 
15 38 
15 39 
15 40 
15 41 
15 42 
15 43 
15 44 
15 45 
15 46 
16 17 
16 18 
16 19 
16 20 
16 21 
16 22 
16 23 
16 24 
16 25 
16 27 
16 37 
16 47 
16 48 
16 49 
16 50 
16 51 
16 52 
16 53 
16 54 
16 55 
17 18 
17 19 
17 20 
17 21 
17 22 
17 23 
17 24 
17 25 
17 28 
17 38 
17 47 
17 56 
17 57 
17 58 
17 59 
17 60 
17 61 
17 62 
17 63 
18 19 
18 20 
18 21 
18 22 
18 23 
18 24 
18 25 
18 29 
18 39 
18 48 
18 56 
18 64 
18 65 
18 66 
18 67 
18 68 
18 69 
18 70 
19 20 
19 21 
19 22 
19 23 
19 24 
19 25 
19 30 
19 40 
19 49 
19 57 
19 64 
19 71 
19 72 
19 73 
19 74 
19 75 
19 76 
20 21 
20 22 
20 23 
20 24 
20 25 
20 31 
20 41 
20 50 
20 58 
20 65 
20 71 
20 77 
20 78 
20 79 
20 80 
20 81 
21 22 
21 23 
21 24 
21 25 
21 32 
21 42 
21 51 
21 59 
21 66 
21 72 
21 77 
21 82 
21 83 
21 84 
21 85 
22 23 
22 24 
22 25 
22 33 
22 43 
22 52 
22 60 
22 67 
22 73 
22 78 
22 82 
22 86 
22 87 
22 88 
23 24 
23 25 
23 34 
23 44 
23 53 
23 61 
23 68 
23 74 
23 79 
23 83 
23 86 
23 89 
23 90 
24 25 
24 35 
24 45 
24 54 
24 62 
24 69 
24 75 
24 80 
24 84 
24 87 
24 89 
24 91 
25 36 
25 46 
25 55 
25 63 
25 70 
25 76 
25 81 
25 85 
25 88 
25 90 
25 91 
26 27 
26 28 
26 29 
26 30 
26 31 
26 32 
26 33 
26 34 
26 35 
26 36 
26 37 
26 38 
26 39 
26 40 
26 41 
26 42 
26 43 
26 44 
26 45 
26 46 
27 28 
27 29 
27 30 
27 31 
27 32 
27 33 
27 34 
27 35 
27 36 
27 37 
27 47 
27 48 
27 49 
27 50 
27 51 
27 52 
27 53 
27 54 
27 55 
28 29 
28 30 
28 31 
28 32 
28 33 
28 34 
28 35 
28 36 
28 38 
28 47 
28 56 
28 57 
28 58 
28 59 
28 60 
28 61 
28 62 
28 63 
29 30 
29 31 
29 32 
29 33 
29 34 
29 35 
29 36 
29 39 
29 48 
29 56 
29 64 
29 65 
29 66 
29 67 
29 68 
29 69 
29 70 
30 31 
30 32 
30 33 
30 34 
30 35 
30 36 
30 40 
30 49 
30 57 
30 64 
30 71 
30 72 
30 73 
30 74 
30 75 
30 76 
31 32 
31 33 
31 34 
31 35 
31 36 
31 41 
31 50 
31 58 
31 65 
31 71 
31 77 
31 78 
31 79 
31 80 
31 81 
32 33 
32 34 
32 35 
32 36 
32 42 
32 51 
32 59 
32 66 
32 72 
32 77 
32 82 
32 83 
32 84 
32 85 
33 34 
33 35 
33 36 
33 43 
33 52 
33 60 
33 67 
33 73 
33 78 
33 82 
33 86 
33 87 
33 88 
34 35 
34 36 
34 44 
34 53 
34 61 
34 68 
34 74 
34 79 
34 83 
34 86 
34 89 
34 90 
35 36 
35 45 
35 54 
35 62 
35 69 
35 75 
35 80 
35 84 
35 87 
35 89 
35 91 
36 46 
36 55 
36 63 
36 70 
36 76 
36 81 
36 85 
36 88 
36 90 
36 91 
37 38 
37 39 
37 40 
37 41 
37 42 
37 43 
37 44 
37 45 
37 46 
37 47 
37 48 
37 49 
37 50 
37 51 
37 52 
37 53 
37 54 
37 55 
38 39 
38 40 
38 41 
38 42 
38 43 
38 44 
38 45 
38 46 
38 47 
38 56 
38 57 
38 58 
38 59 
38 60 
38 61 
38 62 
38 63 
39 40 
39 41 
39 42 
39 43 
39 44 
39 45 
39 46 
39 48 
39 56 
39 64 
39 65 
39 66 
39 67 
39 68 
39 69 
39 70 
40 41 
40 42 
40 43 
40 44 
40 45 
40 46 
40 49 
40 57 
40 64 
40 71 
40 72 
40 73 
40 74 
40 75 
40 76 
41 42 
41 43 
41 44 
41 45 
41 46 
41 50 
41 58 
41 65 
41 71 
41 77 
41 78 
41 79 
41 80 
41 81 
42 43 
42 44 
42 45 
42 46 
42 51 
42 59 
42 66 
42 72 
42 77 
42 82 
42 83 
42 84 
42 85 
43 44 
43 45 
43 46 
43 52 
43 60 
43 67 
43 73 
43 78 
43 82 
43 86 
43 87 
43 88 
44 45 
44 46 
44 53 
44 61 
44 68 
44 74 
44 79 
44 83 
44 86 
44 89 
44 90 
45 46 
45 54 
45 62 
45 69 
45 75 
45 80 
45 84 
45 87 
45 89 
45 91 
46 55 
46 63 
46 70 
46 76 
46 81 
46 85 
46 88 
46 90 
46 91 
47 48 
47 49 
47 50 
47 51 
47 52 
47 53 
47 54 
47 55 
47 56 
47 57 
47 58 
47 59 
47 60 
47 61 
47 62 
47 63 
48 49 
48 50 
48 51 
48 52 
48 53 
48 54 
48 55 
48 56 
48 64 
48 65 
48 66 
48 67 
48 68 
48 69 
48 70 
49 50 
49 51 
49 52 
49 53 
49 54 
49 55 
49 57 
49 64 
49 71 
49 72 
49 73 
49 74 
49 75 
49 76 
50 51 
50 52 
50 53 
50 54 
50 55 
50 58 
50 65 
50 71 
50 77 
50 78 
50 79 
50 80 
50 81 
51 52 
51 53 
51 54 
51 55 
51 59 
51 66 
51 72 
51 77 
51 82 
51 83 
51 84 
51 85 
52 53 
52 54 
52 55 
52 60 
52 67 
52 73 
52 78 
52 82 
52 86 
52 87 
52 88 
53 54 
53 55 
53 61 
53 68 
53 74 
53 79 
53 83 
53 86 
53 89 
53 90 
54 55 
54 62 
54 69 
54 75 
54 80 
54 84 
54 87 
54 89 
54 91 
55 63 
55 70 
55 76 
55 81 
55 85 
55 88 
55 90 
55 91 
56 57 
56 58 
56 59 
56 60 
56 61 
56 62 
56 63 
56 64 
56 65 
56 66 
56 67 
56 68 
56 69 
56 70 
57 58 
57 59 
57 60 
57 61 
57 62 
57 63 
57 64 
57 71 
57 72 
57 73 
57 74 
57 75 
57 76 
58 59 
58 60 
58 61 
58 62 
58 63 
58 65 
58 71 
58 77 
58 78 
58 79 
58 80 
58 81 
59 60 
59 61 
59 62 
59 63 
59 66 
59 72 
59 77 
59 82 
59 83 
59 84 
59 85 
60 61 
60 62 
60 63 
60 67 
60 73 
60 78 
60 82 
60 86 
60 87 
60 88 
61 62 
61 63 
61 68 
61 74 
61 79 
61 83 
61 86 
61 89 
61 90 
62 63 
62 69 
62 75 
62 80 
62 84 
62 87 
62 89 
62 91 
63 70 
63 76 
63 81 
63 85 
63 88 
63 90 
63 91 
64 65 
64 66 
64 67 
64 68 
64 69 
64 70 
64 71 
64 72 
64 73 
64 74 
64 75 
64 76 
65 66 
65 67 
65 68 
65 69 
65 70 
65 71 
65 77 
65 78 
65 79 
65 80 
65 81 
66 67 
66 68 
66 69 
66 70 
66 72 
66 77 
66 82 
66 83 
66 84 
66 85 
67 68 
67 69 
67 70 
67 73 
67 78 
67 82 
67 86 
67 87 
67 88 
68 69 
68 70 
68 74 
68 79 
68 83 
68 86 
68 89 
68 90 
69 70 
69 75 
69 80 
69 84 
69 87 
69 89 
69 91 
70 76 
70 81 
70 85 
70 88 
70 90 
70 91 
71 72 
71 73 
71 74 
71 75 
71 76 
71 77 
71 78 
71 79 
71 80 
71 81 
72 73 
72 74 
72 75 
72 76 
72 77 
72 82 
72 83 
72 84 
72 85 
73 74 
73 75 
73 76 
73 78 
73 82 
73 86 
73 87 
73 88 
74 75 
74 76 
74 79 
74 83 
74 86 
74 89 
74 90 
75 76 
75 80 
75 84 
75 87 
75 89 
75 91 
76 81 
76 85 
76 88 
76 90 
76 91 
77 78 
77 79 
77 80 
77 81 
77 82 
77 83 
77 84 
77 85 
78 79 
78 80 
78 81 
78 82 
78 86 
78 87 
78 88 
79 80 
79 81 
79 83 
79 86 
79 89 
79 90 
80 81 
80 84 
80 87 
80 89 
80 91 
81 85 
81 88 
81 90 
81 91 
82 83 
82 84 
82 85 
82 86 
82 87 
82 88 
83 84 
83 85 
83 86 
83 89 
83 90 
84 85 
84 87 
84 89 
84 91 
85 88 
85 90 
85 91 
86 87 
86 88 
86 89 
86 90 
87 88 
87 89 
87 91 
88 90 
88 91 
89 90 
89 91 
90 91 
